(set-logic QF_LIA)
(set-info :ran/ran2.smt2)
(set-info :smt-lib-version 2.0)
(declare-fun x1 () Int)
(declare-fun x2 () Int)
(declare-fun x3 () Int)
(assert (<= (+ (* 10 x1) (* (- 8) x2) (* (- 7) x3) ) (- 3)))
(assert (<= (+ (* 10 x1) (* 6 x2) (* 3 x3) ) 7))
(assert (<= (+ (* (- 8) x1) (* (- 4) x2) (* (- 10) x3) ) 9))
(assert (<= (+ (* (- 10) x1) (* 2 x2) (* (- 5) x3) ) 0))
(assert (<= (+ (* 3 x1) (* (- 1) x2) (* 8 x3) ) (- 1)))
(assert (<= (+ (* 8 x1) (* (- 7) x2) (* (- 3) x3) ) 2))
(assert (<= (+ (* 1 x1) (* 0 x2) (* 0 x3) ) 10))
(assert (<= (+ (* (- 1) x1) (* 0 x2) (* 0 x3) ) 10))
(assert (<= (+ (* 0 x1) (* 1 x2) (* 0 x3) ) 10))
(assert (<= (+ (* 0 x1) (* (- 1) x2) (* 0 x3) ) 10))
(assert (<= (+ (* 0 x1) (* 0 x2) (* 1 x3) ) 10))
(assert (<= (+ (* 0 x1) (* 0 x2) (* (- 1) x3) ) 10))
